JOBS = 1..3;
MACHINES = 1..3;
SPEED = 4;
time = array3d(JOBS,MACHINES,1..SPEED,[189,56,40,34,149,44,32,26,208,62,44,37,219,65,47,39,239,71,51,43,175,52,37,31,90,26,19,16,149,44,32,26,73,21,15,13]);
energy = array3d(JOBS,MACHINES,1..SPEED,[15,57,67,71,22,64,72,77,12,53,64,69,11,52,62,67,9,49,60,65,17,59,69,73,40,77,82,85,22,64,72,77,48,81,86,87]);
precedence = array2d(JOBS,MACHINES,[0,1,2,1,0,2,1,0,2]);
ME = 1;
TE = 132;
st_old = array2d(JOBS,MACHINES,[0,44,76,147,76,212,44,0,138]);
SpeedScaling = array2d(JOBS,MACHINES,[3,3,2,2,2,4,1,2,1]);
